(set-logic HORN)
(set-info :source |
  Benchmark: ./benchmarks/ocaml/safety/tacas2015//max.ml
  Generated by Refinement Caml
|)
(set-info :status unknown)
(declare-fun |$P3| (Int Int) Bool)
(declare-fun |$P4| (Int Int Int) Bool)
(declare-fun |$P5| (Int Int Int Int) Bool)
(declare-fun |$P2| (Int Int Int) Bool)
(declare-fun |$P6| (Int) Bool)
(declare-fun |$P7| (Int Int) Bool)
(declare-fun |$P0| (Int) Bool)
(declare-fun |$P1| (Int Int) Bool)
(declare-fun |$P8| (Int Int Int Int Int) Bool)
(declare-fun |$P9| (Int Int Int) Bool)
(assert (forall ((x3 Int)(x2 Int)(x0 Int)(x1 Int)) (=> (and (|$P4| x2 x3 x0) (and (|$P5| x2 x3 x0 x1) (|$P3| x2 x3))) (|$P0| x3))))
(assert (forall ((x2 Int)(x3 Int)(x1 Int)(x0 Int)) (=> (and (|$P3| x1 x2) (and (|$P5| x1 x2 x3 x0) (|$P4| x1 x2 x3))) (|$P1| x2 x3))))
(assert (forall ((x4 Int)(x0 Int)(x2 Int)(x3 Int)(x1 Int)) (=> (and (|$P3| x0 x2) (and (|$P4| x0 x2 x3) (and (|$P5| x0 x2 x3 x1) (|$P2| x2 x3 x4)))) (|$P0| x4))))
(assert (forall ((x0 Int)(x4 Int)(x1 Int)(x2 Int)(x3 Int)) (=> (and (|$P3| x1 x2) (and (|$P4| x1 x2 x3) (and (|$P2| x2 x3 x0) (|$P5| x1 x2 x3 x4)))) (|$P1| x0 x4))))
(assert (forall ((x0 Int)(x1 Int)(x2 Int)(x4 Int)(x5 Int)(x3 Int)) (=> (and (|$P3| x0 x1) (and (|$P4| x0 x1 x2) (and (|$P2| x1 x2 x3) (and (|$P5| x0 x1 x2 x4) (|$P2| x3 x4 x5))))) (|$P8| x0 x1 x2 x4 x5))))
(assert (forall ((x0 Int)(x1 Int)(x2 Int)) (=> (and (|$P6| x0) (and (|$P7| x0 x1) (and (|$P6| x2) (and (>= x0 x1) (= x2 x0))))) (|$P9| x0 x1 x2))))
(assert (forall ((x1 Int)(x0 Int)(x2 Int)) (=> (and (|$P6| x1) (and (|$P7| x1 x0) (and (|$P7| x1 x2) (and (< x1 x0) (= x2 x0))))) (|$P9| x1 x0 x2))))
(assert (forall ((x0 Int)) (=> (|$P0| x0) (|$P6| x0))))
(assert (forall ((x0 Int)(x1 Int)) (=> (and (|$P0| x0) (|$P1| x0 x1)) (|$P7| x0 x1))))
(assert (forall ((x0 Int)(x1 Int)(x2 Int)) (=> (and (|$P0| x0) (and (|$P1| x0 x1) (|$P9| x0 x1 x2))) (|$P2| x0 x1 x2))))
(assert (forall ((x0 Int)(x1 Int)) (|$P3| x0 x1)))
(assert (forall ((x0 Int)(x1 Int)(x2 Int)) (|$P4| x0 x1 x2)))
(assert (forall ((x0 Int)(x1 Int)(x2 Int)(x3 Int)) (|$P5| x0 x1 x2 x3)))
(assert (forall ((x1 Int)(x0 Int)(x2 Int)(x3 Int)(x4 Int)) (=> (|$P8| x0 x1 x2 x3 x4) (|$P6| x1))))
(assert (forall ((x1 Int)(x4 Int)(x0 Int)(x2 Int)(x3 Int)) (=> (|$P8| x0 x1 x2 x3 x4) (|$P7| x1 x4))))
(assert (not (exists ((x5 Int)(x4 Int)(x0 Int)(x3 Int)(x1 Int)(x2 Int)) (and (|$P8| x0 x3 x1 x2 x4) (and (|$P9| x3 x4 x5) (or (< x5 x4) (> x5 x4)))))))
(check-sat)
